p cnf 76 83
-1 71 -72 -73 -74 0 
-2 5 40 43 54 64 72 -71 -73 -74 0 
-3 73 -71 -72 -74 0 
-4 12 48 73 -71 -72 -74 0 
-5 2 40 43 54 64 -6 73 -71 -72 -74 0 
-7 72 -71 -73 -74 0 
-5 2 40 43 54 64 73 -71 -72 -74 0 
-8 72 -71 -73 -74 0 
-9 26 51 56 72 -71 -73 -74 0 
-10 -11 22 72 -71 -73 -74 0 
-12 4 48 73 -71 -72 -74 0 
-13 42 57 60 67 72 -71 -73 -74 0 
-14 32 46 59 72 -71 -73 -74 0 
-15 19 47 63 -16 33 36 -17 72 -71 -73 -74 0 
-18 38 72 -71 -73 -74 0 
-19 15 47 63 74 -71 -72 -73 0 
-20 30 -21 50 72 -71 -73 -74 0 
-22 11 -1 72 -71 -73 -74 0 
-23 -24 -25 72 -71 -73 -74 0 
-26 9 51 56 73 -71 -72 -74 0 
-27 69 -28 72 -71 -73 -74 0 
-29 72 -71 -73 -74 0 
-30 20 -31 71 -72 -73 -74 0 
-20 30 -31 72 -71 -73 -74 0 
-32 14 46 59 72 -71 -73 -74 0 
-17 -33 16 36 72 -71 -73 -74 0 
-34 72 -71 -73 -74 0 
-20 30 72 -71 -73 -74 0 
-17 72 -71 -73 -74 0 
-17 -1 72 -71 -73 -74 0 
-35 -24 -36 16 33 72 -71 -73 -74 0 
-37 -38 18 72 -71 -73 -74 0 
-39 72 -71 -73 -74 0 
-40 2 5 43 54 64 75 -13 -42 -57 -60 -67 -71 -72 -73 -74 0 
-41 49 76 -23 -71 -72 -73 -74 0 
-42 13 57 60 67 71 -72 -73 -74 0 
-43 2 5 40 54 64 71 -72 -73 -74 0 
-44 72 -71 -73 -74 0 
-45 74 -71 -72 -73 0 
-46 14 32 59 74 -71 -72 -73 0 
-47 15 19 63 72 -71 -73 -74 0 
-15 19 47 63 72 -71 -73 -74 0 
-14 32 46 59 -48 4 12 -17 72 -71 -73 -74 0 
-49 41 74 -71 -72 -73 0 
-20 30 -1 72 -71 -73 -74 0 
-43 2 5 40 54 64 -50 21 71 -72 -73 -74 0 
-20 30 -50 21 -31 72 -71 -73 -74 0 
-13 42 57 60 67 -22 11 72 -71 -73 -74 0 
-2 5 40 43 54 64 -20 30 72 -71 -73 -74 0 
-51 9 26 56 72 -71 -73 -74 0 
-37 -52 72 -71 -73 -74 0 
-53 74 -71 -72 -73 0 
-54 2 5 40 43 64 72 -71 -73 -74 0 
-55 74 -71 -72 -73 0 
-56 9 26 51 72 -71 -73 -74 0 
-57 13 42 60 67 72 -71 -73 -74 0 
-24 72 -71 -73 -74 0 
-58 72 -71 -73 -74 0 
-59 14 32 46 71 -72 -73 -74 0 
-48 4 12 -50 21 71 -72 -73 -74 0 
-45 72 -71 -73 -74 0 
-60 13 42 57 67 72 -71 -73 -74 0 
-20 30 -50 21 -25 72 -71 -73 -74 0 
-30 20 -25 71 -72 -73 -74 0 
-20 30 -25 72 -71 -73 -74 0 
-24 -61 -25 72 -71 -73 -74 0 
-13 42 57 60 67 -62 72 -71 -73 -74 0 
-14 32 46 59 -63 15 19 47 72 -71 -73 -74 0 
-64 2 5 40 43 54 72 -71 -73 -74 0 
-17 -34 72 -71 -73 -74 0 
-31 72 -71 -73 -74 0 
-65 72 -71 -73 -74 0 
-25 72 -71 -73 -74 0 
-66 -2 5 40 43 54 64 -24 -31 72 -71 -73 -74 0 
-52 72 -71 -73 -74 0 
-64 2 5 40 43 54 -65 72 -71 -73 -74 0 
-65 73 -71 -72 -74 0 
-67 13 42 57 60 73 -71 -72 -74 0 
-68 73 -71 -72 -74 0 
-69 27 72 -71 -73 -74 0 
-30 20 73 -71 -72 -74 0 
-67 13 42 57 60 -70 73 -71 -72 -74 0 
-17 73 -71 -72 -74 0 
